n1 = 5;
adjacent1 = [| 0, 0, 0, 0, 1
| 0, 0, 1, 0, 0
| 0, 1, 0, 0, 0
| 0, 0, 0, 0, 0
| 1, 0, 0, 0, 0 |];
n2 = 5;
adjacent2 = [| 0, 0, 0, 0, 0
| 0, 0, 0, 0, 1
| 0, 0, 0, 1, 0
| 0, 0, 1, 0, 0
| 0, 1, 0, 0, 0 |];
vertexDeletionCost = [45, 45, 45, 45, 45];
vertexInsertionCost = [45, 45, 45, 45, 45];
vertexSubstitutionCost = [| 90, 90, 5.5901699437494745, 90, 33.860005906674026
| 90, 8.514693182963201, 90, 30.53686296920494, 90
| 90, 90, 29.88728826775691, 90, 5.830951894845301
| 7.3824115301167, 90, 90, 90, 90
| 90, 28.78367592924851, 90, 11.853269591129697, 90 |];
edgeDeletionCost = [| 0.0, 0.0, 0.0, 0.0, 15.0
| 0.0, 0.0, 15.0, 0.0, 0.0
| 0.0, 15.0, 0.0, 0.0, 0.0
| 0.0, 0.0, 0.0, 0.0, 0.0
| 15.0, 0.0, 0.0, 0.0, 0.0 |];
edgeInsertionCost = [| 0.0, 0.0, 0.0, 0.0, 0.0
| 0.0, 0.0, 0.0, 0.0, 15.0
| 0.0, 0.0, 0.0, 15.0, 0.0
| 0.0, 0.0, 15.0, 0.0, 0.0
| 0.0, 15.0, 0.0, 0.0, 0.0 |];
edgeSubstitutionCost = array4d(1..n1, 1..n1, 1..n2, 1..n2, [0, 0, 0, 0, 0, 0, 0, 0, 0, 15.0, 0, 0, 0, 15.0, 0, 0, 0, 15.0, 0, 0, 0, 15.0, 0, 0, 0, 0, 0, 0, 0, 0, 0, 0, 0, 0, 15.0, 0, 0, 0, 15.0, 0, 0, 0, 15.0, 0, 0, 0, 15.0, 0, 0, 0, 0, 0, 0, 0, 0, 0, 0, 0, 0, 15.0, 0, 0, 0, 15.0, 0, 0, 0, 15.0, 0, 0, 0, 15.0, 0, 0, 0, 0, 0, 0, 0, 0, 0, 0, 0, 0, 15.0, 0, 0, 0, 15.0, 0, 0, 0, 15.0, 0, 0, 0, 15.0, 0, 0, 0, 15.0, 15.0, 15.0, 15.0, 15.0, 15.0, 15.0, 15.0, 15.0, 0.0, 15.0, 15.0, 15.0, 0.0, 15.0, 15.0, 15.0, 0.0, 15.0, 15.0, 15.0, 0.0, 15.0, 15.0, 15.0, 0, 0, 0, 0, 0, 0, 0, 0, 0, 15.0, 0, 0, 0, 15.0, 0, 0, 0, 15.0, 0, 0, 0, 15.0, 0, 0, 0, 0, 0, 0, 0, 0, 0, 0, 0, 0, 15.0, 0, 0, 0, 15.0, 0, 0, 0, 15.0, 0, 0, 0, 15.0, 0, 0, 0, 15.0, 15.0, 15.0, 15.0, 15.0, 15.0, 15.0, 15.0, 15.0, 0.0, 15.0, 15.0, 15.0, 0.0, 15.0, 15.0, 15.0, 0.0, 15.0, 15.0, 15.0, 0.0, 15.0, 15.0, 15.0, 0, 0, 0, 0, 0, 0, 0, 0, 0, 15.0, 0, 0, 0, 15.0, 0, 0, 0, 15.0, 0, 0, 0, 15.0, 0, 0, 0, 0, 0, 0, 0, 0, 0, 0, 0, 0, 15.0, 0, 0, 0, 15.0, 0, 0, 0, 15.0, 0, 0, 0, 15.0, 0, 0, 0, 0, 0, 0, 0, 0, 0, 0, 0, 0, 15.0, 0, 0, 0, 15.0, 0, 0, 0, 15.0, 0, 0, 0, 15.0, 0, 0, 0, 15.0, 15.0, 15.0, 15.0, 15.0, 15.0, 15.0, 15.0, 15.0, 0.0, 15.0, 15.0, 15.0, 0.0, 15.0, 15.0, 15.0, 0.0, 15.0, 15.0, 15.0, 0.0, 15.0, 15.0, 15.0, 0, 0, 0, 0, 0, 0, 0, 0, 0, 15.0, 0, 0, 0, 15.0, 0, 0, 0, 15.0, 0, 0, 0, 15.0, 0, 0, 0, 0, 0, 0, 0, 0, 0, 0, 0, 0, 15.0, 0, 0, 0, 15.0, 0, 0, 0, 15.0, 0, 0, 0, 15.0, 0, 0, 0, 0, 0, 0, 0, 0, 0, 0, 0, 0, 15.0, 0, 0, 0, 15.0, 0, 0, 0, 15.0, 0, 0, 0, 15.0, 0, 0, 0, 0, 0, 0, 0, 0, 0, 0, 0, 0, 15.0, 0, 0, 0, 15.0, 0, 0, 0, 15.0, 0, 0, 0, 15.0, 0, 0, 0, 0, 0, 0, 0, 0, 0, 0, 0, 0, 15.0, 0, 0, 0, 15.0, 0, 0, 0, 15.0, 0, 0, 0, 15.0, 0, 0, 0, 0, 0, 0, 0, 0, 0, 0, 0, 0, 15.0, 0, 0, 0, 15.0, 0, 0, 0, 15.0, 0, 0, 0, 15.0, 0, 0, 0, 0, 0, 0, 0, 0, 0, 0, 0, 0, 15.0, 0, 0, 0, 15.0, 0, 0, 0, 15.0, 0, 0, 0, 15.0, 0, 0, 0, 0, 0, 0, 0, 0, 0, 0, 0, 0, 15.0, 0, 0, 0, 15.0, 0, 0, 0, 15.0, 0, 0, 0, 15.0, 0, 0, 0, 15.0, 15.0, 15.0, 15.0, 15.0, 15.0, 15.0, 15.0, 15.0, 0.0, 15.0, 15.0, 15.0, 0.0, 15.0, 15.0, 15.0, 0.0, 15.0, 15.0, 15.0, 0.0, 15.0, 15.0, 15.0, 0, 0, 0, 0, 0, 0, 0, 0, 0, 15.0, 0, 0, 0, 15.0, 0, 0, 0, 15.0, 0, 0, 0, 15.0, 0, 0, 0, 0, 0, 0, 0, 0, 0, 0, 0, 0, 15.0, 0, 0, 0, 15.0, 0, 0, 0, 15.0, 0, 0, 0, 15.0, 0, 0, 0, 0, 0, 0, 0, 0, 0, 0, 0, 0, 15.0, 0, 0, 0, 15.0, 0, 0, 0, 15.0, 0, 0, 0, 15.0, 0, 0, 0, 0, 0, 0, 0, 0, 0, 0, 0, 0, 15.0, 0, 0, 0, 15.0, 0, 0, 0, 15.0, 0, 0, 0, 15.0, 0, 0, 0]);
